135
10000
2682
2622
3352
954
160
3782
2201
4523
2868
2244
4327
4245
1684
1873
1020
1188
2705
2645
2712
2642
3781
1631
510
3638
673
2965
324
470
2478
4027
432
480
4575
951
220
1183
2197
4319
2540
568
894
3171
1558
974
49
381
1085
1376
610
2013
2267
1988
2599
3017
516
2396
389
3
2312
2240
903
1125
4805
3457
4725
4487
765
2441
2258
3656
1437
4797
4782
1766
1682
2307
260
1994
3610
913
1371
676
4531
2445
4150
2089
4782
66
2836
412
4967
3261
3662
889
505
4320
867
1079
2509
4871
2640
1640
3180
1752
3088
1666
3420
3641
994
2782
825
593
4025
773
242
2766
2313
360
4122
419
1931
3655
2971
567
79
891
2947
2003
4054
1031
4638
2110
3215
4166
3814
